
630.0
630.0
630.0
630.0
630.0
630.0
630.0
630.0
630.0
630.0
1050.0
630.0
630.0
630.0
1050.0
630.0
630.0
1080.0
630.0
630.0
630.0
630.0
630.0
630.0
630.0
630.0
630.0
1050.0
900.0
810.0
630.0
630.0
630.0
630.0
1560.0
960.0
630.0
630.0
630.0
870.0